66 19 20 95 54 56 36 79 77 58 15 51 50 37 44 81 27 8 84 92 78 55 17 6 21 94 64 48 59 80 72 76 31 22 42 69 30 13 65 82 97 68 87 53 93 70 16 32 25 91 96 57 60 88 90 39 1 5 71 26 45 34 85 43 74 62 49 98 63 0 3 38 11 46 2 41 89 24 61 35 12 18 73 67 9 83 75 4 10 86 47 33 99 14 29 52 23 7 40 28 

